
  32    4
  10   10   10   10

   0   0   0   0   0   4 2 4 5 31 
   8   1   0   1   1   5 30 29 27 16 3 
   5   3   1   3   0   3 28 25 6 
   6   6   3   4   0   4 27 26 25 7 
   1   0   3   7   8   3 27 25 8 
   5   4   6   0   5   2 26 7 
  10   3   6   0   6   1 8 
   3   6   0   1   3   3 24 15 9 
   1   9   0   3   1   4 23 22 21 10 
   3   4   4   0   3   1 11 
   6   6   0   4   2   2 19 12 
  10   2   0   8   7   2 18 13 
   9   5   3   0   7   1 14 
   7   2   3   0   3   1 17 
   9   3   5   5   0   1 20 
   3   3   1   3   0   1 20 
   4   6   0   4   2   1 32
  10   7   4   0   4   1 32
   3   0   8   3   7   1 32
   4   4   5   3   0   1 32
   1   0   4   1   3   1 32
   1   1   0   3   5   1 32
   2   0   3   6   8   1 32
  10   3   0   5   4   1 32
  10   0   6   3   3   1 32
   3   0   5   5   2   1 32
   3   2   3   4   0   1 32
   1   4   2   4   0   1 32
   1   0   3   4   3   1 32
   8   0   7   5   2   1 32
   7   0   3   7   3   1 32
   0   0   0   0   0   0 
